11
1 5
2 7
3 2
4 1
5 5
6 4
7 2
8 5
9 5
10 10
25
0 1 46
1 0 46
0 2 39
2 0 39
0 3 1
3 0 1
0 4 98
4 0 98
0 5 81
5 0 81
0 6 67
6 0 67
0 7 78
7 0 78
0 8 21
8 0 21
0 9 35
9 0 35
0 10 70
10 0 70
2 6 11
4 5 26
4 8 64
7 8 57
8 9 68
